
n_res = 4;
rcap = [32, 35, 263, 265];
rtype = [1, 1, 2, 2];
n_tasks = 100;
modes =  [{1, 2, 3}, {4, 5, 6}, {7, 8, 9}, {10, 11, 12}, {13, 14, 15}, {16, 17, 18}, {19, 20, 21}, {22, 23, 24}, {25, 26, 27}, {28, 29, 30}, {31, 32, 33}, {34, 35, 36}, {37, 38, 39}, {40, 41, 42}, {43, 44, 45}, {46, 47, 48}, {49, 50, 51}, {52, 53, 54}, {55, 56, 57}, {58, 59, 60}, {61, 62, 63}, {64, 65, 66}, {67, 68, 69}, {70, 71, 72}, {73, 74, 75}, {76, 77, 78}, {79, 80, 81}, {82, 83, 84}, {85, 86, 87}, {88, 89, 90}, {91, 92, 93}, {94, 95, 96}, {97, 98, 99}, {100, 101, 102}, {103, 104, 105}, {106, 107, 108}, {109, 110, 111}, {112, 113, 114}, {115, 116, 117}, {118, 119, 120}, {121, 122, 123}, {124, 125, 126}, {127, 128, 129}, {130, 131, 132}, {133, 134, 135}, {136, 137, 138}, {139, 140, 141}, {142, 143, 144}, {145, 146, 147}, {148, 149, 150}, {151, 152, 153}, {154, 155, 156}, {157, 158, 159}, {160, 161, 162}, {163, 164, 165}, {166, 167, 168}, {169, 170, 171}, {172, 173, 174}, {175, 176, 177}, {178, 179, 180}, {181, 182, 183}, {184, 185, 186}, {187, 188, 189}, {190, 191, 192}, {193, 194, 195}, {196, 197, 198}, {199, 200, 201}, {202, 203, 204}, {205, 206, 207}, {208, 209, 210}, {211, 212, 213}, {214, 215, 216}, {217, 218, 219}, {220, 221, 222}, {223, 224, 225}, {226, 227, 228}, {229, 230, 231}, {232, 233, 234}, {235, 236, 237}, {238, 239, 240}, {241, 242, 243}, {244, 245, 246}, {247, 248, 249}, {250, 251, 252}, {253, 254, 255}, {256, 257, 258}, {259, 260, 261}, {262, 263, 264}, {265, 266, 267}, {268, 269, 270}, {271, 272, 273}, {274, 275, 276}, {277, 278, 279}, {280, 281, 282}, {283, 284, 285}, {286, 287, 288}, {289, 290, 291}, {292, 293, 294}, {295, 296, 297}, {298, 299, 300}];
succ =  [{40, 37, 28, 26, 25, 24, 23, 22, 19, 13, 6, 2}, {57, 56, 54, 53, 46, 45, 44, 41, 39, 36, 31, 29, 27, 20}, {57, 56, 47, 45, 42, 40, 38, 37, 35, 34, 32, 26, 25}, {53, 49, 48, 47, 46, 45, 42, 40, 36, 31, 30, 22}, {53, 52, 45, 44, 43, 42, 35, 34, 31, 29, 25}, {57, 56, 54, 53, 51, 46, 44, 43, 42, 38, 36, 35, 31, 27}, {57, 56, 53, 49, 45, 39, 38, 36, 32, 31, 25}, {57, 56, 52, 46, 45, 43, 41, 39, 38, 34, 32, 31, 30}, {57, 56, 53, 51, 46, 43, 42, 41, 38, 36, 35, 34, 26}, {57, 54, 46, 45, 42, 41, 36, 34, 31, 30, 29}, {53, 52, 49, 46, 45, 44, 43, 39, 38, 37, 32, 31, 30}, {57, 54, 53, 47, 44, 43, 41, 39, 38, 34, 31, 30}, {57, 46, 36, 34, 31, 21}, {53, 49, 47, 45, 43, 42, 41, 38, 32, 31, 30}, {66, 57, 56, 54, 51, 42, 40, 36, 34, 29}, {56, 54, 53, 43, 39, 36, 35, 27}, {74, 66, 65, 64, 63, 54, 51, 50, 47, 43, 39, 38, 34}, {65, 63, 57, 55, 54, 51, 50, 49, 48, 47, 45, 36}, {80, 69, 67, 55, 54, 53, 52, 49, 47, 45, 43, 30}, {67, 52, 42, 38, 34, 30}, {79, 74, 70, 67, 65, 64, 63, 58, 56, 54, 51, 49, 45, 43, 38}, {84, 80, 71, 69, 67, 65, 64, 63, 59, 58, 57, 56, 54, 52, 50, 43, 41}, {65, 59, 54, 48, 41, 36, 31}, {59, 58, 57, 52, 43, 38, 31}, {84, 74, 69, 62, 50, 48, 46, 41, 30}, {71, 69, 65, 64, 59, 58, 52, 48, 31}, {74, 69, 67, 66, 64, 63, 61, 60, 50, 34}, {84, 79, 76, 74, 71, 70, 69, 67, 64, 63, 60, 59, 58, 55, 54, 43}, {79, 76, 64, 63, 59, 47, 38}, {79, 76, 71, 70, 68, 66, 65, 64, 63, 61, 60, 58, 51}, {84, 79, 74, 70, 67, 66, 63, 62, 61, 60, 55, 50}, {80, 78, 77, 74, 71, 69, 67, 65, 63, 62, 61, 60, 55, 54}, {84, 83, 79, 73, 72, 71, 67, 62, 59, 54, 52}, {99, 83, 80, 79, 76, 70, 62, 59, 58, 55, 49}, {100, 84, 79, 78, 77, 76, 74, 72, 71, 68, 65, 63, 61, 48}, {98, 83, 79, 77, 72, 69, 67, 64, 62, 58, 52}, {99, 83, 76, 74, 71, 70, 64, 60, 59, 55, 50}, {100, 99, 84, 72, 71, 69, 68, 61, 60, 48}, {97, 80, 79, 78, 77, 76, 75, 73, 72, 70, 68, 67, 62}, {73, 72, 68, 67, 62, 61, 60, 58}, {95, 93, 83, 79, 78, 77, 72, 70, 68, 66, 60}, {99, 97, 95, 80, 78, 76, 75, 70, 61, 60}, {100, 99, 97, 96, 92, 81, 78, 77, 75, 62, 61}, {98, 97, 96, 95, 83, 79, 75, 68, 59}, {95, 94, 91, 87, 84, 83, 78, 76, 73, 66}, {99, 88, 77, 75, 72, 71, 70, 63}, {99, 97, 96, 93, 77, 75, 61, 60}, {97, 96, 95, 94, 92, 91, 90, 87, 83, 81, 80, 75, 73}, {100, 98, 97, 93, 92, 88, 84, 77, 75, 72, 71}, {100, 96, 95, 93, 92, 89, 78, 77, 75, 68}, {100, 99, 95, 93, 72, 59}, {100, 97, 93, 91, 89, 86, 81, 76, 74, 70}, {100, 98, 97, 96, 94, 93, 92, 91, 90, 89, 87, 86, 83, 82}, {98, 96, 95, 93, 92, 90, 88, 81, 75, 68}, {96, 95, 94, 90, 88, 87, 73, 72}, {97, 95, 92, 91, 82, 77, 61}, {94, 86, 81, 78, 77, 73}, {97, 96, 92, 91, 89, 87, 78, 75}, {92, 91, 89, 86, 81, 78, 77}, {92, 91, 90, 89, 88, 86, 81}, {98, 94, 90, 89, 87, 85, 83}, {95, 93, 91, 89, 88, 87, 82}, {97, 95, 93, 91, 90, 87, 86}, {95, 94, 93, 91, 86, 82}, {96, 94, 92, 89, 87, 82}, {97, 90, 88, 75}, {99, 95, 93, 92, 89, 86}, {94, 91, 87, 86, 82}, {92, 91, 88, 86, 85}, {96, 92, 87, 85}, {94, 90, 89, 87}, {91, 86, 82}, {98, 93, 89}, {96, 90, 88}, {86, 82}, {92, 82}, {87, 85}, {90, 88}, {92, 89}, {93, 86}, {82}, {85}, {88}, {86}, {}, {}, {}, {}, {}, {}, {}, {}, {}, {}, {}, {}, {}, {}, {}, {}];
n_opt = 300;
dur = [1, 2, 3, 4, 5, 7, 3, 4, 10, 5, 9, 10, 6, 9, 10, 2, 7, 10, 1, 6, 9, 2, 3, 5, 1, 7, 9, 2, 8, 9, 6, 8, 9, 1, 4, 7, 3, 4, 10, 6, 9, 10, 2, 6, 9, 2, 5, 10, 1, 6, 7, 1, 7, 8, 2, 4, 8, 9, 9, 10, 1, 4, 4, 1, 7, 9, 2, 4, 5, 2, 3, 4, 3, 4, 10, 3, 3, 6, 1, 3, 9, 2, 3, 7, 4, 6, 8, 1, 4, 6, 5, 7, 10, 4, 5, 10, 4, 9, 10, 1, 4, 10, 4, 5, 6, 4, 6, 8, 1, 3, 9, 1, 2, 3, 4, 7, 8, 2, 3, 8, 7, 9, 10, 4, 7, 10, 3, 5, 8, 8, 9, 10, 4, 5, 8, 3, 5, 9, 1, 2, 10, 3, 4, 5, 3, 4, 6, 1, 6, 9, 2, 8, 8, 1, 6, 8, 4, 5, 10, 6, 7, 8, 2, 7, 9, 4, 6, 10, 1, 9, 10, 2, 6, 9, 3, 6, 7, 3, 5, 8, 1, 3, 4, 1, 3, 7, 3, 6, 9, 6, 6, 10, 3, 4, 8, 2, 3, 5, 1, 6, 7, 2, 6, 10, 2, 5, 10, 2, 4, 6, 4, 8, 9, 5, 9, 9, 2, 3, 6, 1, 2, 2, 2, 4, 10, 1, 9, 10, 1, 3, 8, 4, 4, 10, 2, 2, 7, 2, 4, 7, 6, 8, 10, 3, 4, 6, 3, 8, 10, 2, 3, 10, 4, 9, 10, 1, 5, 7, 3, 3, 10, 5, 8, 10, 3, 5, 8, 1, 5, 8, 9, 9, 10, 1, 6, 8, 3, 4, 6, 3, 7, 10, 3, 6, 10, 1, 4, 9, 5, 10, 10, 1, 8, 10, 2, 8, 9, 1, 3, 8];
rreq = [|5, 5, 5, 1, 1, 1, 3, 3, 3, 2, 2, 2, 4, 4, 4, 2, 1, 1, 3, 3, 3, 5, 3, 3, 5, 4, 3, 3, 2, 1, 2, 1, 1, 3, 2, 1, 5, 3, 2, 4, 4, 4, 4, 4, 4, 2, 2, 2, 5, 3, 2, 4, 2, 2, 4, 4, 4, 4, 3, 2, 4, 3, 3, 1, 1, 1, 4, 4, 4, 3, 3, 3, 3, 3, 1, 4, 2, 1, 5, 2, 2, 2, 1, 1, 5, 4, 2, 3, 2, 2, 3, 3, 3, 4, 3, 3, 5, 3, 3, 3, 3, 1, 3, 2, 1, 3, 3, 2, 5, 3, 2, 3, 3, 2, 1, 1, 1, 4, 4, 2, 2, 1, 1, 2, 1, 1, 1, 1, 1, 3, 3, 3, 4, 3, 3, 4, 4, 3, 5, 3, 3, 5, 3, 1, 2, 2, 2, 5, 5, 5, 4, 2, 2, 5, 5, 5, 5, 4, 4, 4, 4, 4, 3, 2, 1, 2, 2, 2, 4, 3, 2, 4, 3, 3, 2, 2, 2, 1, 1, 1, 3, 3, 2, 4, 4, 4, 1, 1, 1, 3, 2, 1, 2, 1, 1, 5, 3, 2, 4, 3, 2, 4, 4, 3, 1, 1, 1, 5, 4, 4, 5, 4, 3, 2, 2, 2, 5, 5, 5, 4, 3, 1, 3, 2, 2, 5, 5, 5, 5, 3, 3, 5, 4, 3, 3, 3, 1, 3, 2, 2, 1, 1, 1, 3, 3, 3, 4, 3, 3, 1, 1, 1, 5, 4, 4, 4, 4, 4, 4, 3, 2, 5, 3, 3, 5, 5, 5, 4, 4, 4, 4, 3, 3, 4, 3, 3, 2, 2, 2, 3, 1, 1, 5, 4, 3, 2, 2, 2, 2, 2, 2, 3, 3, 1, 1, 1, 1, 3, 2, 2
 |2, 2, 2, 4, 4, 4, 4, 2, 2, 4, 3, 3, 5, 5, 5, 4, 2, 2, 4, 3, 3, 4, 2, 1, 3, 3, 3, 3, 3, 2, 5, 2, 1, 2, 2, 2, 3, 3, 2, 2, 2, 1, 5, 4, 4, 4, 3, 3, 4, 3, 3, 2, 1, 1, 3, 2, 2, 4, 3, 3, 4, 3, 2, 5, 3, 3, 3, 3, 3, 4, 3, 2, 5, 3, 3, 3, 2, 2, 4, 4, 4, 4, 3, 3, 5, 4, 4, 3, 3, 1, 3, 2, 2, 5, 4, 4, 5, 3, 2, 4, 2, 1, 2, 2, 2, 2, 2, 2, 3, 2, 2, 2, 2, 2, 5, 4, 2, 4, 3, 3, 5, 4, 4, 5, 5, 5, 1, 1, 1, 3, 3, 3, 4, 4, 4, 4, 4, 2, 3, 2, 2, 2, 1, 1, 5, 3, 2, 3, 2, 2, 3, 3, 3, 4, 4, 2, 4, 3, 2, 4, 3, 3, 4, 3, 3, 1, 1, 1, 3, 3, 2, 3, 3, 3, 4, 4, 4, 4, 3, 2, 4, 4, 4, 3, 1, 1, 5, 3, 3, 3, 2, 2, 5, 4, 4, 3, 2, 2, 3, 3, 2, 4, 4, 4, 5, 4, 3, 2, 2, 2, 3, 3, 2, 3, 3, 2, 4, 3, 2, 4, 4, 4, 1, 1, 1, 4, 4, 4, 3, 2, 1, 3, 3, 3, 5, 4, 3, 4, 3, 2, 4, 4, 3, 4, 4, 2, 3, 3, 2, 4, 4, 4, 2, 1, 1, 5, 4, 4, 4, 3, 2, 5, 4, 4, 4, 4, 4, 3, 3, 3, 5, 5, 5, 2, 2, 2, 4, 4, 2, 3, 1, 1, 5, 4, 3, 3, 2, 1, 4, 4, 4, 5, 3, 3, 2, 2, 1, 4, 3, 3
 |0, 3, 0, 0, 0, 2, 0, 2, 1, 0, 0, 0, 4, 3, 1, 0, 0, 4, 4, 4, 0, 0, 6, 5, 0, 8, 6, 5, 4, 0, 10, 0, 0, 0, 0, 0, 0, 2, 2, 4, 0, 0, 0, 9, 8, 0, 0, 0, 7, 4, 4, 0, 0, 0, 0, 0, 4, 0, 9, 0, 9, 0, 2, 10, 9, 8, 6, 0, 0, 0, 0, 0, 6, 4, 4, 6, 0, 5, 0, 4, 3, 6, 6, 0, 7, 0, 0, 4, 0, 1, 0, 3, 2, 4, 2, 1, 0, 2, 1, 0, 0, 3, 4, 3, 0, 10, 0, 0, 0, 0, 0, 6, 5, 2, 0, 0, 0, 0, 6, 0, 6, 0, 5, 9, 9, 8, 0, 6, 0, 9, 8, 7, 6, 6, 4, 0, 0, 6, 5, 5, 4, 7, 0, 0, 0, 0, 8, 0, 3, 2, 3, 2, 0, 0, 0, 0, 0, 0, 3, 6, 5, 0, 6, 6, 6, 9, 0, 7, 9, 0, 7, 0, 0, 3, 7, 6, 0, 0, 9, 0, 9, 0, 9, 0, 4, 0, 0, 0, 0, 0, 2, 2, 0, 0, 0, 0, 0, 2, 0, 2, 0, 0, 7, 7, 9, 9, 0, 0, 0, 0, 6, 0, 3, 6, 5, 0, 0, 1, 1, 10, 6, 0, 2, 2, 1, 8, 0, 0, 0, 0, 0, 0, 2, 1, 0, 4, 0, 6, 5, 0, 0, 8, 8, 0, 6, 5, 0, 9, 9, 5, 0, 0, 7, 6, 0, 0, 0, 0, 6, 0, 2, 0, 5, 0, 0, 0, 2, 0, 4, 0, 0, 7, 6, 0, 0, 0, 5, 4, 2, 8, 0, 0, 2, 1, 0, 0, 0, 0, 0, 0, 7, 3, 2, 0, 7, 0, 0, 0, 0, 0
 |7, 0, 5, 6, 4, 0, 4, 0, 0, 5, 3, 2, 0, 0, 0, 1, 1, 0, 0, 0, 1, 3, 0, 0, 10, 0, 0, 0, 0, 9, 0, 8, 8, 6, 5, 5, 3, 0, 0, 0, 7, 4, 2, 0, 0, 7, 5, 4, 0, 0, 0, 5, 5, 4, 8, 6, 0, 5, 0, 4, 0, 2, 0, 0, 0, 0, 0, 2, 1, 2, 2, 1, 0, 0, 0, 0, 5, 0, 2, 0, 0, 0, 0, 4, 0, 4, 4, 0, 6, 0, 3, 0, 0, 0, 0, 0, 7, 0, 0, 6, 5, 0, 0, 0, 3, 0, 4, 4, 8, 7, 7, 0, 0, 0, 4, 2, 2, 6, 0, 3, 0, 8, 0, 0, 0, 0, 5, 0, 4, 0, 0, 0, 0, 0, 0, 6, 3, 0, 0, 0, 0, 0, 2, 2, 3, 2, 0, 8, 0, 0, 0, 0, 7, 8, 7, 8, 6, 4, 0, 0, 0, 4, 0, 0, 0, 0, 2, 0, 0, 7, 0, 7, 7, 0, 0, 0, 1, 9, 0, 8, 0, 5, 0, 8, 0, 8, 8, 6, 4, 7, 0, 0, 5, 3, 2, 6, 4, 0, 10, 0, 8, 10, 0, 0, 0, 0, 6, 3, 3, 2, 0, 3, 0, 0, 0, 7, 3, 0, 0, 0, 0, 2, 0, 0, 0, 0, 2, 1, 3, 2, 2, 3, 0, 0, 4, 0, 3, 0, 0, 5, 8, 0, 0, 1, 0, 0, 8, 0, 0, 0, 5, 4, 0, 0, 2, 6, 4, 3, 0, 7, 0, 8, 0, 8, 9, 4, 0, 9, 0, 8, 6, 0, 0, 9, 7, 6, 0, 0, 0, 0, 8, 7, 0, 0, 2, 9, 9, 9, 4, 3, 0, 0, 0, 3, 0, 3, 2, 9, 6, 3|];